units micro
dimension 2
atom_style bond
bond_style harmonic
boundary p p p
read_data colloid.lmpdat
Reading data file ...
  orthogonal box = (-893.2 -893.2 -5) to (893.2 893.2 5)
  1 by 1 by 1 MPI processor grid
  reading atoms ...
  9407 atoms
  scanning bonds ...
  3 = max bonds/atom
  orthogonal box = (-893.2 -893.2 -5) to (893.2 893.2 5)
  1 by 1 by 1 MPI processor grid
  reading bonds ...
  27870 bonds
Finding 1-2 1-3 1-4 neighbors ...
  special bond factors lj:    0        0        0       
  special bond factors coul:  0        0        0       
     6 = max # of 1-2 neighbors
    30 = max # of 1-3 neighbors
   180 = max # of 1-4 neighbors
    36 = max # of special neighbors
  special bonds CPU = 0.010 seconds
  read_data CPU = 0.056 seconds
bond_coeff 1 1.000000e-07 5.80    # <---- a_coll
group internal type 1
9061 atoms in group internal
group external type 2
346 atoms in group external
compute Getx all property/atom x
compute Gety all property/atom y
variable c equal 2*PI/5.40       # <---- a_pot
#---------- Define G, V0, F -----------------------------------------------------------------------#
variable G1_x equal ${c}*(cos(0)-cos(2*PI/5))   # i valori sono gli stessi per G1, G4, G5, G17
variable G1_x equal 1.16355283466289*(cos(0)-cos(2*PI/5))   
variable G1_y equal ${c}*(sin(2*PI/5)-sin(0))
variable G1_y equal 1.16355283466289*(sin(2*PI/5)-sin(0))
variable G2_x equal ${c}*(cos(0)-cos(4*PI/5))   # idem per G2, +G3, G9, G13
variable G2_x equal 1.16355283466289*(cos(0)-cos(4*PI/5))   
variable G2_y equal ${c}*(sin(4*PI/5)-sin(0))
variable G2_y equal 1.16355283466289*(sin(4*PI/5)-sin(0))
variable G6_x equal ${c}*(cos(2*PI/5)-cos(4*PI/5))
variable G6_x equal 1.16355283466289*(cos(2*PI/5)-cos(4*PI/5))
variable G6_y equal ${c}*(sin(2*PI/5)-sin(4*PI/5))    # hanno anche Gy uguale G10,G16,G20
variable G6_y equal 1.16355283466289*(sin(2*PI/5)-sin(4*PI/5))    
variable G7_x equal ${G6_x}
variable G7_x equal 1.3008916168594
variable G7_y equal ${c}*(sin(2*PI/5)-sin(6*PI/5))    # Gx uguale al gruppo di G6, mentre
variable G7_y equal 1.16355283466289*(sin(2*PI/5)-sin(6*PI/5))    
variable G8_x equal 0.0 # Gx uguale G8 G18 G11 G15 #sarebbe 0
variable G8_y equal ${c}*(sin(2*PI/5)-sin(8*PI/5))   # G8 e G18 sulle y
variable G8_y equal 1.16355283466289*(sin(2*PI/5)-sin(8*PI/5))   
variable G11_y equal ${c}*(sin(4*PI/5)-sin(6*PI/5))  # G11 e G15 sulle y
variable G11_y equal 1.16355283466289*(sin(4*PI/5)-sin(6*PI/5))  
# ----- POTENTIAL AMP: V_0=1e-07 is 0.1zJ ----- #
variable g equal 0.07
variable V0 equal v_g*2.0e-07*(5.80^2)
# variable V0 equal 1.0e-7
variable pot_ext atom $(-2/25)*${V0}*(cos(${G1_x}*c_Getx+${G1_y}*c_Gety)+cos(${G1_x}*c_Getx-${G1_y}*c_Gety)+cos(${G2_x}*c_Getx+${G2_y}*c_Gety)+cos(${G2_x}*c_Getx-${G2_y}*c_Gety)+cos(${G6_x}*c_Getx+${G6_y}*c_Gety)+cos(${G6_x}*c_Getx-${G6_y}*c_Gety)+cos(${G7_x}*c_Getx+${G7_y}*c_Gety)+cos(${G7_x}*c_Getx-${G7_y}*c_Gety)+cos(${G8_y}*c_Gety)+cos(${G11_y}*c_Gety))
variable pot_ext atom -0.080000000000000001665*${V0}*(cos(${G1_x}*c_Getx+${G1_y}*c_Gety)+cos(${G1_x}*c_Getx-${G1_y}*c_Gety)+cos(${G2_x}*c_Getx+${G2_y}*c_Gety)+cos(${G2_x}*c_Getx-${G2_y}*c_Gety)+cos(${G6_x}*c_Getx+${G6_y}*c_Gety)+cos(${G6_x}*c_Getx-${G6_y}*c_Gety)+cos(${G7_x}*c_Getx+${G7_y}*c_Gety)+cos(${G7_x}*c_Getx-${G7_y}*c_Gety)+cos(${G8_y}*c_Gety)+cos(${G11_y}*c_Gety))
variable pot_ext atom -0.080000000000000001665*4.7096e-07*(cos(${G1_x}*c_Getx+${G1_y}*c_Gety)+cos(${G1_x}*c_Getx-${G1_y}*c_Gety)+cos(${G2_x}*c_Getx+${G2_y}*c_Gety)+cos(${G2_x}*c_Getx-${G2_y}*c_Gety)+cos(${G6_x}*c_Getx+${G6_y}*c_Gety)+cos(${G6_x}*c_Getx-${G6_y}*c_Gety)+cos(${G7_x}*c_Getx+${G7_y}*c_Gety)+cos(${G7_x}*c_Getx-${G7_y}*c_Gety)+cos(${G8_y}*c_Gety)+cos(${G11_y}*c_Gety))
variable pot_ext atom -0.080000000000000001665*4.7096e-07*(cos(0.803995234898914*c_Getx+${G1_y}*c_Gety)+cos(${G1_x}*c_Getx-${G1_y}*c_Gety)+cos(${G2_x}*c_Getx+${G2_y}*c_Gety)+cos(${G2_x}*c_Getx-${G2_y}*c_Gety)+cos(${G6_x}*c_Getx+${G6_y}*c_Gety)+cos(${G6_x}*c_Getx-${G6_y}*c_Gety)+cos(${G7_x}*c_Getx+${G7_y}*c_Gety)+cos(${G7_x}*c_Getx-${G7_y}*c_Gety)+cos(${G8_y}*c_Gety)+cos(${G11_y}*c_Gety))
variable pot_ext atom -0.080000000000000001665*4.7096e-07*(cos(0.803995234898914*c_Getx+1.10660450545984*c_Gety)+cos(${G1_x}*c_Getx-${G1_y}*c_Gety)+cos(${G2_x}*c_Getx+${G2_y}*c_Gety)+cos(${G2_x}*c_Getx-${G2_y}*c_Gety)+cos(${G6_x}*c_Getx+${G6_y}*c_Gety)+cos(${G6_x}*c_Getx-${G6_y}*c_Gety)+cos(${G7_x}*c_Getx+${G7_y}*c_Gety)+cos(${G7_x}*c_Getx-${G7_y}*c_Gety)+cos(${G8_y}*c_Gety)+cos(${G11_y}*c_Gety))
variable pot_ext atom -0.080000000000000001665*4.7096e-07*(cos(0.803995234898914*c_Getx+1.10660450545984*c_Gety)+cos(0.803995234898914*c_Getx-${G1_y}*c_Gety)+cos(${G2_x}*c_Getx+${G2_y}*c_Gety)+cos(${G2_x}*c_Getx-${G2_y}*c_Gety)+cos(${G6_x}*c_Getx+${G6_y}*c_Gety)+cos(${G6_x}*c_Getx-${G6_y}*c_Gety)+cos(${G7_x}*c_Getx+${G7_y}*c_Gety)+cos(${G7_x}*c_Getx-${G7_y}*c_Gety)+cos(${G8_y}*c_Gety)+cos(${G11_y}*c_Gety))
variable pot_ext atom -0.080000000000000001665*4.7096e-07*(cos(0.803995234898914*c_Getx+1.10660450545984*c_Gety)+cos(0.803995234898914*c_Getx-1.10660450545984*c_Gety)+cos(${G2_x}*c_Getx+${G2_y}*c_Gety)+cos(${G2_x}*c_Getx-${G2_y}*c_Gety)+cos(${G6_x}*c_Getx+${G6_y}*c_Gety)+cos(${G6_x}*c_Getx-${G6_y}*c_Gety)+cos(${G7_x}*c_Getx+${G7_y}*c_Gety)+cos(${G7_x}*c_Getx-${G7_y}*c_Gety)+cos(${G8_y}*c_Gety)+cos(${G11_y}*c_Gety))
variable pot_ext atom -0.080000000000000001665*4.7096e-07*(cos(0.803995234898914*c_Getx+1.10660450545984*c_Gety)+cos(0.803995234898914*c_Getx-1.10660450545984*c_Gety)+cos(2.10488685175831*c_Getx+${G2_y}*c_Gety)+cos(${G2_x}*c_Getx-${G2_y}*c_Gety)+cos(${G6_x}*c_Getx+${G6_y}*c_Gety)+cos(${G6_x}*c_Getx-${G6_y}*c_Gety)+cos(${G7_x}*c_Getx+${G7_y}*c_Gety)+cos(${G7_x}*c_Getx-${G7_y}*c_Gety)+cos(${G8_y}*c_Gety)+cos(${G11_y}*c_Gety))
variable pot_ext atom -0.080000000000000001665*4.7096e-07*(cos(0.803995234898914*c_Getx+1.10660450545984*c_Gety)+cos(0.803995234898914*c_Getx-1.10660450545984*c_Gety)+cos(2.10488685175831*c_Getx+0.683919196477949*c_Gety)+cos(${G2_x}*c_Getx-${G2_y}*c_Gety)+cos(${G6_x}*c_Getx+${G6_y}*c_Gety)+cos(${G6_x}*c_Getx-${G6_y}*c_Gety)+cos(${G7_x}*c_Getx+${G7_y}*c_Gety)+cos(${G7_x}*c_Getx-${G7_y}*c_Gety)+cos(${G8_y}*c_Gety)+cos(${G11_y}*c_Gety))
variable pot_ext atom -0.080000000000000001665*4.7096e-07*(cos(0.803995234898914*c_Getx+1.10660450545984*c_Gety)+cos(0.803995234898914*c_Getx-1.10660450545984*c_Gety)+cos(2.10488685175831*c_Getx+0.683919196477949*c_Gety)+cos(2.10488685175831*c_Getx-${G2_y}*c_Gety)+cos(${G6_x}*c_Getx+${G6_y}*c_Gety)+cos(${G6_x}*c_Getx-${G6_y}*c_Gety)+cos(${G7_x}*c_Getx+${G7_y}*c_Gety)+cos(${G7_x}*c_Getx-${G7_y}*c_Gety)+cos(${G8_y}*c_Gety)+cos(${G11_y}*c_Gety))
variable pot_ext atom -0.080000000000000001665*4.7096e-07*(cos(0.803995234898914*c_Getx+1.10660450545984*c_Gety)+cos(0.803995234898914*c_Getx-1.10660450545984*c_Gety)+cos(2.10488685175831*c_Getx+0.683919196477949*c_Gety)+cos(2.10488685175831*c_Getx-0.683919196477949*c_Gety)+cos(${G6_x}*c_Getx+${G6_y}*c_Gety)+cos(${G6_x}*c_Getx-${G6_y}*c_Gety)+cos(${G7_x}*c_Getx+${G7_y}*c_Gety)+cos(${G7_x}*c_Getx-${G7_y}*c_Gety)+cos(${G8_y}*c_Gety)+cos(${G11_y}*c_Gety))
variable pot_ext atom -0.080000000000000001665*4.7096e-07*(cos(0.803995234898914*c_Getx+1.10660450545984*c_Gety)+cos(0.803995234898914*c_Getx-1.10660450545984*c_Gety)+cos(2.10488685175831*c_Getx+0.683919196477949*c_Gety)+cos(2.10488685175831*c_Getx-0.683919196477949*c_Gety)+cos(1.3008916168594*c_Getx+${G6_y}*c_Gety)+cos(${G6_x}*c_Getx-${G6_y}*c_Gety)+cos(${G7_x}*c_Getx+${G7_y}*c_Gety)+cos(${G7_x}*c_Getx-${G7_y}*c_Gety)+cos(${G8_y}*c_Gety)+cos(${G11_y}*c_Gety))
variable pot_ext atom -0.080000000000000001665*4.7096e-07*(cos(0.803995234898914*c_Getx+1.10660450545984*c_Gety)+cos(0.803995234898914*c_Getx-1.10660450545984*c_Gety)+cos(2.10488685175831*c_Getx+0.683919196477949*c_Gety)+cos(2.10488685175831*c_Getx-0.683919196477949*c_Gety)+cos(1.3008916168594*c_Getx+0.42268530898189*c_Gety)+cos(${G6_x}*c_Getx-${G6_y}*c_Gety)+cos(${G7_x}*c_Getx+${G7_y}*c_Gety)+cos(${G7_x}*c_Getx-${G7_y}*c_Gety)+cos(${G8_y}*c_Gety)+cos(${G11_y}*c_Gety))
variable pot_ext atom -0.080000000000000001665*4.7096e-07*(cos(0.803995234898914*c_Getx+1.10660450545984*c_Gety)+cos(0.803995234898914*c_Getx-1.10660450545984*c_Gety)+cos(2.10488685175831*c_Getx+0.683919196477949*c_Gety)+cos(2.10488685175831*c_Getx-0.683919196477949*c_Gety)+cos(1.3008916168594*c_Getx+0.42268530898189*c_Gety)+cos(1.3008916168594*c_Getx-${G6_y}*c_Gety)+cos(${G7_x}*c_Getx+${G7_y}*c_Gety)+cos(${G7_x}*c_Getx-${G7_y}*c_Gety)+cos(${G8_y}*c_Gety)+cos(${G11_y}*c_Gety))
variable pot_ext atom -0.080000000000000001665*4.7096e-07*(cos(0.803995234898914*c_Getx+1.10660450545984*c_Gety)+cos(0.803995234898914*c_Getx-1.10660450545984*c_Gety)+cos(2.10488685175831*c_Getx+0.683919196477949*c_Gety)+cos(2.10488685175831*c_Getx-0.683919196477949*c_Gety)+cos(1.3008916168594*c_Getx+0.42268530898189*c_Gety)+cos(1.3008916168594*c_Getx-0.42268530898189*c_Gety)+cos(${G7_x}*c_Getx+${G7_y}*c_Gety)+cos(${G7_x}*c_Getx-${G7_y}*c_Gety)+cos(${G8_y}*c_Gety)+cos(${G11_y}*c_Gety))
variable pot_ext atom -0.080000000000000001665*4.7096e-07*(cos(0.803995234898914*c_Getx+1.10660450545984*c_Gety)+cos(0.803995234898914*c_Getx-1.10660450545984*c_Gety)+cos(2.10488685175831*c_Getx+0.683919196477949*c_Gety)+cos(2.10488685175831*c_Getx-0.683919196477949*c_Gety)+cos(1.3008916168594*c_Getx+0.42268530898189*c_Gety)+cos(1.3008916168594*c_Getx-0.42268530898189*c_Gety)+cos(1.3008916168594*c_Getx+${G7_y}*c_Gety)+cos(${G7_x}*c_Getx-${G7_y}*c_Gety)+cos(${G8_y}*c_Gety)+cos(${G11_y}*c_Gety))
variable pot_ext atom -0.080000000000000001665*4.7096e-07*(cos(0.803995234898914*c_Getx+1.10660450545984*c_Gety)+cos(0.803995234898914*c_Getx-1.10660450545984*c_Gety)+cos(2.10488685175831*c_Getx+0.683919196477949*c_Gety)+cos(2.10488685175831*c_Getx-0.683919196477949*c_Gety)+cos(1.3008916168594*c_Getx+0.42268530898189*c_Gety)+cos(1.3008916168594*c_Getx-0.42268530898189*c_Gety)+cos(1.3008916168594*c_Getx+1.79052370193779*c_Gety)+cos(${G7_x}*c_Getx-${G7_y}*c_Gety)+cos(${G8_y}*c_Gety)+cos(${G11_y}*c_Gety))
variable pot_ext atom -0.080000000000000001665*4.7096e-07*(cos(0.803995234898914*c_Getx+1.10660450545984*c_Gety)+cos(0.803995234898914*c_Getx-1.10660450545984*c_Gety)+cos(2.10488685175831*c_Getx+0.683919196477949*c_Gety)+cos(2.10488685175831*c_Getx-0.683919196477949*c_Gety)+cos(1.3008916168594*c_Getx+0.42268530898189*c_Gety)+cos(1.3008916168594*c_Getx-0.42268530898189*c_Gety)+cos(1.3008916168594*c_Getx+1.79052370193779*c_Gety)+cos(1.3008916168594*c_Getx-${G7_y}*c_Gety)+cos(${G8_y}*c_Gety)+cos(${G11_y}*c_Gety))
variable pot_ext atom -0.080000000000000001665*4.7096e-07*(cos(0.803995234898914*c_Getx+1.10660450545984*c_Gety)+cos(0.803995234898914*c_Getx-1.10660450545984*c_Gety)+cos(2.10488685175831*c_Getx+0.683919196477949*c_Gety)+cos(2.10488685175831*c_Getx-0.683919196477949*c_Gety)+cos(1.3008916168594*c_Getx+0.42268530898189*c_Gety)+cos(1.3008916168594*c_Getx-0.42268530898189*c_Gety)+cos(1.3008916168594*c_Getx+1.79052370193779*c_Gety)+cos(1.3008916168594*c_Getx-1.79052370193779*c_Gety)+cos(${G8_y}*c_Gety)+cos(${G11_y}*c_Gety))
variable pot_ext atom -0.080000000000000001665*4.7096e-07*(cos(0.803995234898914*c_Getx+1.10660450545984*c_Gety)+cos(0.803995234898914*c_Getx-1.10660450545984*c_Gety)+cos(2.10488685175831*c_Getx+0.683919196477949*c_Gety)+cos(2.10488685175831*c_Getx-0.683919196477949*c_Gety)+cos(1.3008916168594*c_Getx+0.42268530898189*c_Gety)+cos(1.3008916168594*c_Getx-0.42268530898189*c_Gety)+cos(1.3008916168594*c_Getx+1.79052370193779*c_Gety)+cos(1.3008916168594*c_Getx-1.79052370193779*c_Gety)+cos(2.21320901091968*c_Gety)+cos(${G11_y}*c_Gety))
variable pot_ext atom -0.080000000000000001665*4.7096e-07*(cos(0.803995234898914*c_Getx+1.10660450545984*c_Gety)+cos(0.803995234898914*c_Getx-1.10660450545984*c_Gety)+cos(2.10488685175831*c_Getx+0.683919196477949*c_Gety)+cos(2.10488685175831*c_Getx-0.683919196477949*c_Gety)+cos(1.3008916168594*c_Getx+0.42268530898189*c_Gety)+cos(1.3008916168594*c_Getx-0.42268530898189*c_Gety)+cos(1.3008916168594*c_Getx+1.79052370193779*c_Gety)+cos(1.3008916168594*c_Getx-1.79052370193779*c_Gety)+cos(2.21320901091968*c_Gety)+cos(1.3678383929559*c_Gety))
variable Fx atom $(-2/25)*${V0}*(${G1_x}*(sin(${G1_x}*c_Getx+${G1_y}*c_Gety)+sin(${G1_x}*c_Getx-${G1_y}*c_Gety))+${G2_x}*(sin(${G2_x}*c_Getx+${G2_y}*c_Gety)+sin(${G2_x}*c_Getx-${G2_y}*c_Gety))+${G6_x}*(sin(${G6_x}*c_Getx+${G6_y}*c_Gety)+sin(${G6_x}*c_Getx-${G6_y}*c_Gety))+${G7_x}*(sin(${G7_x}*c_Getx+${G7_y}*c_Gety)+sin(${G7_x}*c_Getx-${G7_y}*c_Gety)))
variable Fx atom -0.080000000000000001665*${V0}*(${G1_x}*(sin(${G1_x}*c_Getx+${G1_y}*c_Gety)+sin(${G1_x}*c_Getx-${G1_y}*c_Gety))+${G2_x}*(sin(${G2_x}*c_Getx+${G2_y}*c_Gety)+sin(${G2_x}*c_Getx-${G2_y}*c_Gety))+${G6_x}*(sin(${G6_x}*c_Getx+${G6_y}*c_Gety)+sin(${G6_x}*c_Getx-${G6_y}*c_Gety))+${G7_x}*(sin(${G7_x}*c_Getx+${G7_y}*c_Gety)+sin(${G7_x}*c_Getx-${G7_y}*c_Gety)))
variable Fx atom -0.080000000000000001665*4.7096e-07*(${G1_x}*(sin(${G1_x}*c_Getx+${G1_y}*c_Gety)+sin(${G1_x}*c_Getx-${G1_y}*c_Gety))+${G2_x}*(sin(${G2_x}*c_Getx+${G2_y}*c_Gety)+sin(${G2_x}*c_Getx-${G2_y}*c_Gety))+${G6_x}*(sin(${G6_x}*c_Getx+${G6_y}*c_Gety)+sin(${G6_x}*c_Getx-${G6_y}*c_Gety))+${G7_x}*(sin(${G7_x}*c_Getx+${G7_y}*c_Gety)+sin(${G7_x}*c_Getx-${G7_y}*c_Gety)))
variable Fx atom -0.080000000000000001665*4.7096e-07*(0.803995234898914*(sin(${G1_x}*c_Getx+${G1_y}*c_Gety)+sin(${G1_x}*c_Getx-${G1_y}*c_Gety))+${G2_x}*(sin(${G2_x}*c_Getx+${G2_y}*c_Gety)+sin(${G2_x}*c_Getx-${G2_y}*c_Gety))+${G6_x}*(sin(${G6_x}*c_Getx+${G6_y}*c_Gety)+sin(${G6_x}*c_Getx-${G6_y}*c_Gety))+${G7_x}*(sin(${G7_x}*c_Getx+${G7_y}*c_Gety)+sin(${G7_x}*c_Getx-${G7_y}*c_Gety)))
variable Fx atom -0.080000000000000001665*4.7096e-07*(0.803995234898914*(sin(0.803995234898914*c_Getx+${G1_y}*c_Gety)+sin(${G1_x}*c_Getx-${G1_y}*c_Gety))+${G2_x}*(sin(${G2_x}*c_Getx+${G2_y}*c_Gety)+sin(${G2_x}*c_Getx-${G2_y}*c_Gety))+${G6_x}*(sin(${G6_x}*c_Getx+${G6_y}*c_Gety)+sin(${G6_x}*c_Getx-${G6_y}*c_Gety))+${G7_x}*(sin(${G7_x}*c_Getx+${G7_y}*c_Gety)+sin(${G7_x}*c_Getx-${G7_y}*c_Gety)))
variable Fx atom -0.080000000000000001665*4.7096e-07*(0.803995234898914*(sin(0.803995234898914*c_Getx+1.10660450545984*c_Gety)+sin(${G1_x}*c_Getx-${G1_y}*c_Gety))+${G2_x}*(sin(${G2_x}*c_Getx+${G2_y}*c_Gety)+sin(${G2_x}*c_Getx-${G2_y}*c_Gety))+${G6_x}*(sin(${G6_x}*c_Getx+${G6_y}*c_Gety)+sin(${G6_x}*c_Getx-${G6_y}*c_Gety))+${G7_x}*(sin(${G7_x}*c_Getx+${G7_y}*c_Gety)+sin(${G7_x}*c_Getx-${G7_y}*c_Gety)))
variable Fx atom -0.080000000000000001665*4.7096e-07*(0.803995234898914*(sin(0.803995234898914*c_Getx+1.10660450545984*c_Gety)+sin(0.803995234898914*c_Getx-${G1_y}*c_Gety))+${G2_x}*(sin(${G2_x}*c_Getx+${G2_y}*c_Gety)+sin(${G2_x}*c_Getx-${G2_y}*c_Gety))+${G6_x}*(sin(${G6_x}*c_Getx+${G6_y}*c_Gety)+sin(${G6_x}*c_Getx-${G6_y}*c_Gety))+${G7_x}*(sin(${G7_x}*c_Getx+${G7_y}*c_Gety)+sin(${G7_x}*c_Getx-${G7_y}*c_Gety)))
variable Fx atom -0.080000000000000001665*4.7096e-07*(0.803995234898914*(sin(0.803995234898914*c_Getx+1.10660450545984*c_Gety)+sin(0.803995234898914*c_Getx-1.10660450545984*c_Gety))+${G2_x}*(sin(${G2_x}*c_Getx+${G2_y}*c_Gety)+sin(${G2_x}*c_Getx-${G2_y}*c_Gety))+${G6_x}*(sin(${G6_x}*c_Getx+${G6_y}*c_Gety)+sin(${G6_x}*c_Getx-${G6_y}*c_Gety))+${G7_x}*(sin(${G7_x}*c_Getx+${G7_y}*c_Gety)+sin(${G7_x}*c_Getx-${G7_y}*c_Gety)))
variable Fx atom -0.080000000000000001665*4.7096e-07*(0.803995234898914*(sin(0.803995234898914*c_Getx+1.10660450545984*c_Gety)+sin(0.803995234898914*c_Getx-1.10660450545984*c_Gety))+2.10488685175831*(sin(${G2_x}*c_Getx+${G2_y}*c_Gety)+sin(${G2_x}*c_Getx-${G2_y}*c_Gety))+${G6_x}*(sin(${G6_x}*c_Getx+${G6_y}*c_Gety)+sin(${G6_x}*c_Getx-${G6_y}*c_Gety))+${G7_x}*(sin(${G7_x}*c_Getx+${G7_y}*c_Gety)+sin(${G7_x}*c_Getx-${G7_y}*c_Gety)))
variable Fx atom -0.080000000000000001665*4.7096e-07*(0.803995234898914*(sin(0.803995234898914*c_Getx+1.10660450545984*c_Gety)+sin(0.803995234898914*c_Getx-1.10660450545984*c_Gety))+2.10488685175831*(sin(2.10488685175831*c_Getx+${G2_y}*c_Gety)+sin(${G2_x}*c_Getx-${G2_y}*c_Gety))+${G6_x}*(sin(${G6_x}*c_Getx+${G6_y}*c_Gety)+sin(${G6_x}*c_Getx-${G6_y}*c_Gety))+${G7_x}*(sin(${G7_x}*c_Getx+${G7_y}*c_Gety)+sin(${G7_x}*c_Getx-${G7_y}*c_Gety)))
variable Fx atom -0.080000000000000001665*4.7096e-07*(0.803995234898914*(sin(0.803995234898914*c_Getx+1.10660450545984*c_Gety)+sin(0.803995234898914*c_Getx-1.10660450545984*c_Gety))+2.10488685175831*(sin(2.10488685175831*c_Getx+0.683919196477949*c_Gety)+sin(${G2_x}*c_Getx-${G2_y}*c_Gety))+${G6_x}*(sin(${G6_x}*c_Getx+${G6_y}*c_Gety)+sin(${G6_x}*c_Getx-${G6_y}*c_Gety))+${G7_x}*(sin(${G7_x}*c_Getx+${G7_y}*c_Gety)+sin(${G7_x}*c_Getx-${G7_y}*c_Gety)))
variable Fx atom -0.080000000000000001665*4.7096e-07*(0.803995234898914*(sin(0.803995234898914*c_Getx+1.10660450545984*c_Gety)+sin(0.803995234898914*c_Getx-1.10660450545984*c_Gety))+2.10488685175831*(sin(2.10488685175831*c_Getx+0.683919196477949*c_Gety)+sin(2.10488685175831*c_Getx-${G2_y}*c_Gety))+${G6_x}*(sin(${G6_x}*c_Getx+${G6_y}*c_Gety)+sin(${G6_x}*c_Getx-${G6_y}*c_Gety))+${G7_x}*(sin(${G7_x}*c_Getx+${G7_y}*c_Gety)+sin(${G7_x}*c_Getx-${G7_y}*c_Gety)))
variable Fx atom -0.080000000000000001665*4.7096e-07*(0.803995234898914*(sin(0.803995234898914*c_Getx+1.10660450545984*c_Gety)+sin(0.803995234898914*c_Getx-1.10660450545984*c_Gety))+2.10488685175831*(sin(2.10488685175831*c_Getx+0.683919196477949*c_Gety)+sin(2.10488685175831*c_Getx-0.683919196477949*c_Gety))+${G6_x}*(sin(${G6_x}*c_Getx+${G6_y}*c_Gety)+sin(${G6_x}*c_Getx-${G6_y}*c_Gety))+${G7_x}*(sin(${G7_x}*c_Getx+${G7_y}*c_Gety)+sin(${G7_x}*c_Getx-${G7_y}*c_Gety)))
variable Fx atom -0.080000000000000001665*4.7096e-07*(0.803995234898914*(sin(0.803995234898914*c_Getx+1.10660450545984*c_Gety)+sin(0.803995234898914*c_Getx-1.10660450545984*c_Gety))+2.10488685175831*(sin(2.10488685175831*c_Getx+0.683919196477949*c_Gety)+sin(2.10488685175831*c_Getx-0.683919196477949*c_Gety))+1.3008916168594*(sin(${G6_x}*c_Getx+${G6_y}*c_Gety)+sin(${G6_x}*c_Getx-${G6_y}*c_Gety))+${G7_x}*(sin(${G7_x}*c_Getx+${G7_y}*c_Gety)+sin(${G7_x}*c_Getx-${G7_y}*c_Gety)))
variable Fx atom -0.080000000000000001665*4.7096e-07*(0.803995234898914*(sin(0.803995234898914*c_Getx+1.10660450545984*c_Gety)+sin(0.803995234898914*c_Getx-1.10660450545984*c_Gety))+2.10488685175831*(sin(2.10488685175831*c_Getx+0.683919196477949*c_Gety)+sin(2.10488685175831*c_Getx-0.683919196477949*c_Gety))+1.3008916168594*(sin(1.3008916168594*c_Getx+${G6_y}*c_Gety)+sin(${G6_x}*c_Getx-${G6_y}*c_Gety))+${G7_x}*(sin(${G7_x}*c_Getx+${G7_y}*c_Gety)+sin(${G7_x}*c_Getx-${G7_y}*c_Gety)))
variable Fx atom -0.080000000000000001665*4.7096e-07*(0.803995234898914*(sin(0.803995234898914*c_Getx+1.10660450545984*c_Gety)+sin(0.803995234898914*c_Getx-1.10660450545984*c_Gety))+2.10488685175831*(sin(2.10488685175831*c_Getx+0.683919196477949*c_Gety)+sin(2.10488685175831*c_Getx-0.683919196477949*c_Gety))+1.3008916168594*(sin(1.3008916168594*c_Getx+0.42268530898189*c_Gety)+sin(${G6_x}*c_Getx-${G6_y}*c_Gety))+${G7_x}*(sin(${G7_x}*c_Getx+${G7_y}*c_Gety)+sin(${G7_x}*c_Getx-${G7_y}*c_Gety)))
variable Fx atom -0.080000000000000001665*4.7096e-07*(0.803995234898914*(sin(0.803995234898914*c_Getx+1.10660450545984*c_Gety)+sin(0.803995234898914*c_Getx-1.10660450545984*c_Gety))+2.10488685175831*(sin(2.10488685175831*c_Getx+0.683919196477949*c_Gety)+sin(2.10488685175831*c_Getx-0.683919196477949*c_Gety))+1.3008916168594*(sin(1.3008916168594*c_Getx+0.42268530898189*c_Gety)+sin(1.3008916168594*c_Getx-${G6_y}*c_Gety))+${G7_x}*(sin(${G7_x}*c_Getx+${G7_y}*c_Gety)+sin(${G7_x}*c_Getx-${G7_y}*c_Gety)))
variable Fx atom -0.080000000000000001665*4.7096e-07*(0.803995234898914*(sin(0.803995234898914*c_Getx+1.10660450545984*c_Gety)+sin(0.803995234898914*c_Getx-1.10660450545984*c_Gety))+2.10488685175831*(sin(2.10488685175831*c_Getx+0.683919196477949*c_Gety)+sin(2.10488685175831*c_Getx-0.683919196477949*c_Gety))+1.3008916168594*(sin(1.3008916168594*c_Getx+0.42268530898189*c_Gety)+sin(1.3008916168594*c_Getx-0.42268530898189*c_Gety))+${G7_x}*(sin(${G7_x}*c_Getx+${G7_y}*c_Gety)+sin(${G7_x}*c_Getx-${G7_y}*c_Gety)))
variable Fx atom -0.080000000000000001665*4.7096e-07*(0.803995234898914*(sin(0.803995234898914*c_Getx+1.10660450545984*c_Gety)+sin(0.803995234898914*c_Getx-1.10660450545984*c_Gety))+2.10488685175831*(sin(2.10488685175831*c_Getx+0.683919196477949*c_Gety)+sin(2.10488685175831*c_Getx-0.683919196477949*c_Gety))+1.3008916168594*(sin(1.3008916168594*c_Getx+0.42268530898189*c_Gety)+sin(1.3008916168594*c_Getx-0.42268530898189*c_Gety))+1.3008916168594*(sin(${G7_x}*c_Getx+${G7_y}*c_Gety)+sin(${G7_x}*c_Getx-${G7_y}*c_Gety)))
variable Fx atom -0.080000000000000001665*4.7096e-07*(0.803995234898914*(sin(0.803995234898914*c_Getx+1.10660450545984*c_Gety)+sin(0.803995234898914*c_Getx-1.10660450545984*c_Gety))+2.10488685175831*(sin(2.10488685175831*c_Getx+0.683919196477949*c_Gety)+sin(2.10488685175831*c_Getx-0.683919196477949*c_Gety))+1.3008916168594*(sin(1.3008916168594*c_Getx+0.42268530898189*c_Gety)+sin(1.3008916168594*c_Getx-0.42268530898189*c_Gety))+1.3008916168594*(sin(1.3008916168594*c_Getx+${G7_y}*c_Gety)+sin(${G7_x}*c_Getx-${G7_y}*c_Gety)))
variable Fx atom -0.080000000000000001665*4.7096e-07*(0.803995234898914*(sin(0.803995234898914*c_Getx+1.10660450545984*c_Gety)+sin(0.803995234898914*c_Getx-1.10660450545984*c_Gety))+2.10488685175831*(sin(2.10488685175831*c_Getx+0.683919196477949*c_Gety)+sin(2.10488685175831*c_Getx-0.683919196477949*c_Gety))+1.3008916168594*(sin(1.3008916168594*c_Getx+0.42268530898189*c_Gety)+sin(1.3008916168594*c_Getx-0.42268530898189*c_Gety))+1.3008916168594*(sin(1.3008916168594*c_Getx+1.79052370193779*c_Gety)+sin(${G7_x}*c_Getx-${G7_y}*c_Gety)))
variable Fx atom -0.080000000000000001665*4.7096e-07*(0.803995234898914*(sin(0.803995234898914*c_Getx+1.10660450545984*c_Gety)+sin(0.803995234898914*c_Getx-1.10660450545984*c_Gety))+2.10488685175831*(sin(2.10488685175831*c_Getx+0.683919196477949*c_Gety)+sin(2.10488685175831*c_Getx-0.683919196477949*c_Gety))+1.3008916168594*(sin(1.3008916168594*c_Getx+0.42268530898189*c_Gety)+sin(1.3008916168594*c_Getx-0.42268530898189*c_Gety))+1.3008916168594*(sin(1.3008916168594*c_Getx+1.79052370193779*c_Gety)+sin(1.3008916168594*c_Getx-${G7_y}*c_Gety)))
variable Fx atom -0.080000000000000001665*4.7096e-07*(0.803995234898914*(sin(0.803995234898914*c_Getx+1.10660450545984*c_Gety)+sin(0.803995234898914*c_Getx-1.10660450545984*c_Gety))+2.10488685175831*(sin(2.10488685175831*c_Getx+0.683919196477949*c_Gety)+sin(2.10488685175831*c_Getx-0.683919196477949*c_Gety))+1.3008916168594*(sin(1.3008916168594*c_Getx+0.42268530898189*c_Gety)+sin(1.3008916168594*c_Getx-0.42268530898189*c_Gety))+1.3008916168594*(sin(1.3008916168594*c_Getx+1.79052370193779*c_Gety)+sin(1.3008916168594*c_Getx-1.79052370193779*c_Gety)))
variable Fy atom $(-2/25)*${V0}*(${G1_y}*(sin(${G1_x}*c_Getx+${G1_y}*c_Gety)-sin(${G1_x}*c_Getx-${G1_y}*c_Gety))+${G2_y}*(sin(${G2_x}*c_Getx+${G2_y}*c_Gety)-sin(${G2_x}*c_Getx-${G2_y}*c_Gety))+${G6_y}*(sin(${G6_x}*c_Getx+${G6_y}*c_Gety)-sin(${G6_x}*c_Getx-${G6_y}*c_Gety))+${G7_y}*(sin(${G7_x}*c_Getx+${G7_y}*c_Gety)-sin(${G7_x}*c_Getx-${G7_y}*c_Gety))+${G8_y}*sin(${G8_y}*c_Gety)+${G11_y}*sin(${G11_y}*c_Gety))
variable Fy atom -0.080000000000000001665*${V0}*(${G1_y}*(sin(${G1_x}*c_Getx+${G1_y}*c_Gety)-sin(${G1_x}*c_Getx-${G1_y}*c_Gety))+${G2_y}*(sin(${G2_x}*c_Getx+${G2_y}*c_Gety)-sin(${G2_x}*c_Getx-${G2_y}*c_Gety))+${G6_y}*(sin(${G6_x}*c_Getx+${G6_y}*c_Gety)-sin(${G6_x}*c_Getx-${G6_y}*c_Gety))+${G7_y}*(sin(${G7_x}*c_Getx+${G7_y}*c_Gety)-sin(${G7_x}*c_Getx-${G7_y}*c_Gety))+${G8_y}*sin(${G8_y}*c_Gety)+${G11_y}*sin(${G11_y}*c_Gety))
variable Fy atom -0.080000000000000001665*4.7096e-07*(${G1_y}*(sin(${G1_x}*c_Getx+${G1_y}*c_Gety)-sin(${G1_x}*c_Getx-${G1_y}*c_Gety))+${G2_y}*(sin(${G2_x}*c_Getx+${G2_y}*c_Gety)-sin(${G2_x}*c_Getx-${G2_y}*c_Gety))+${G6_y}*(sin(${G6_x}*c_Getx+${G6_y}*c_Gety)-sin(${G6_x}*c_Getx-${G6_y}*c_Gety))+${G7_y}*(sin(${G7_x}*c_Getx+${G7_y}*c_Gety)-sin(${G7_x}*c_Getx-${G7_y}*c_Gety))+${G8_y}*sin(${G8_y}*c_Gety)+${G11_y}*sin(${G11_y}*c_Gety))
variable Fy atom -0.080000000000000001665*4.7096e-07*(1.10660450545984*(sin(${G1_x}*c_Getx+${G1_y}*c_Gety)-sin(${G1_x}*c_Getx-${G1_y}*c_Gety))+${G2_y}*(sin(${G2_x}*c_Getx+${G2_y}*c_Gety)-sin(${G2_x}*c_Getx-${G2_y}*c_Gety))+${G6_y}*(sin(${G6_x}*c_Getx+${G6_y}*c_Gety)-sin(${G6_x}*c_Getx-${G6_y}*c_Gety))+${G7_y}*(sin(${G7_x}*c_Getx+${G7_y}*c_Gety)-sin(${G7_x}*c_Getx-${G7_y}*c_Gety))+${G8_y}*sin(${G8_y}*c_Gety)+${G11_y}*sin(${G11_y}*c_Gety))
variable Fy atom -0.080000000000000001665*4.7096e-07*(1.10660450545984*(sin(0.803995234898914*c_Getx+${G1_y}*c_Gety)-sin(${G1_x}*c_Getx-${G1_y}*c_Gety))+${G2_y}*(sin(${G2_x}*c_Getx+${G2_y}*c_Gety)-sin(${G2_x}*c_Getx-${G2_y}*c_Gety))+${G6_y}*(sin(${G6_x}*c_Getx+${G6_y}*c_Gety)-sin(${G6_x}*c_Getx-${G6_y}*c_Gety))+${G7_y}*(sin(${G7_x}*c_Getx+${G7_y}*c_Gety)-sin(${G7_x}*c_Getx-${G7_y}*c_Gety))+${G8_y}*sin(${G8_y}*c_Gety)+${G11_y}*sin(${G11_y}*c_Gety))
variable Fy atom -0.080000000000000001665*4.7096e-07*(1.10660450545984*(sin(0.803995234898914*c_Getx+1.10660450545984*c_Gety)-sin(${G1_x}*c_Getx-${G1_y}*c_Gety))+${G2_y}*(sin(${G2_x}*c_Getx+${G2_y}*c_Gety)-sin(${G2_x}*c_Getx-${G2_y}*c_Gety))+${G6_y}*(sin(${G6_x}*c_Getx+${G6_y}*c_Gety)-sin(${G6_x}*c_Getx-${G6_y}*c_Gety))+${G7_y}*(sin(${G7_x}*c_Getx+${G7_y}*c_Gety)-sin(${G7_x}*c_Getx-${G7_y}*c_Gety))+${G8_y}*sin(${G8_y}*c_Gety)+${G11_y}*sin(${G11_y}*c_Gety))
variable Fy atom -0.080000000000000001665*4.7096e-07*(1.10660450545984*(sin(0.803995234898914*c_Getx+1.10660450545984*c_Gety)-sin(0.803995234898914*c_Getx-${G1_y}*c_Gety))+${G2_y}*(sin(${G2_x}*c_Getx+${G2_y}*c_Gety)-sin(${G2_x}*c_Getx-${G2_y}*c_Gety))+${G6_y}*(sin(${G6_x}*c_Getx+${G6_y}*c_Gety)-sin(${G6_x}*c_Getx-${G6_y}*c_Gety))+${G7_y}*(sin(${G7_x}*c_Getx+${G7_y}*c_Gety)-sin(${G7_x}*c_Getx-${G7_y}*c_Gety))+${G8_y}*sin(${G8_y}*c_Gety)+${G11_y}*sin(${G11_y}*c_Gety))
variable Fy atom -0.080000000000000001665*4.7096e-07*(1.10660450545984*(sin(0.803995234898914*c_Getx+1.10660450545984*c_Gety)-sin(0.803995234898914*c_Getx-1.10660450545984*c_Gety))+${G2_y}*(sin(${G2_x}*c_Getx+${G2_y}*c_Gety)-sin(${G2_x}*c_Getx-${G2_y}*c_Gety))+${G6_y}*(sin(${G6_x}*c_Getx+${G6_y}*c_Gety)-sin(${G6_x}*c_Getx-${G6_y}*c_Gety))+${G7_y}*(sin(${G7_x}*c_Getx+${G7_y}*c_Gety)-sin(${G7_x}*c_Getx-${G7_y}*c_Gety))+${G8_y}*sin(${G8_y}*c_Gety)+${G11_y}*sin(${G11_y}*c_Gety))
variable Fy atom -0.080000000000000001665*4.7096e-07*(1.10660450545984*(sin(0.803995234898914*c_Getx+1.10660450545984*c_Gety)-sin(0.803995234898914*c_Getx-1.10660450545984*c_Gety))+0.683919196477949*(sin(${G2_x}*c_Getx+${G2_y}*c_Gety)-sin(${G2_x}*c_Getx-${G2_y}*c_Gety))+${G6_y}*(sin(${G6_x}*c_Getx+${G6_y}*c_Gety)-sin(${G6_x}*c_Getx-${G6_y}*c_Gety))+${G7_y}*(sin(${G7_x}*c_Getx+${G7_y}*c_Gety)-sin(${G7_x}*c_Getx-${G7_y}*c_Gety))+${G8_y}*sin(${G8_y}*c_Gety)+${G11_y}*sin(${G11_y}*c_Gety))
variable Fy atom -0.080000000000000001665*4.7096e-07*(1.10660450545984*(sin(0.803995234898914*c_Getx+1.10660450545984*c_Gety)-sin(0.803995234898914*c_Getx-1.10660450545984*c_Gety))+0.683919196477949*(sin(2.10488685175831*c_Getx+${G2_y}*c_Gety)-sin(${G2_x}*c_Getx-${G2_y}*c_Gety))+${G6_y}*(sin(${G6_x}*c_Getx+${G6_y}*c_Gety)-sin(${G6_x}*c_Getx-${G6_y}*c_Gety))+${G7_y}*(sin(${G7_x}*c_Getx+${G7_y}*c_Gety)-sin(${G7_x}*c_Getx-${G7_y}*c_Gety))+${G8_y}*sin(${G8_y}*c_Gety)+${G11_y}*sin(${G11_y}*c_Gety))
variable Fy atom -0.080000000000000001665*4.7096e-07*(1.10660450545984*(sin(0.803995234898914*c_Getx+1.10660450545984*c_Gety)-sin(0.803995234898914*c_Getx-1.10660450545984*c_Gety))+0.683919196477949*(sin(2.10488685175831*c_Getx+0.683919196477949*c_Gety)-sin(${G2_x}*c_Getx-${G2_y}*c_Gety))+${G6_y}*(sin(${G6_x}*c_Getx+${G6_y}*c_Gety)-sin(${G6_x}*c_Getx-${G6_y}*c_Gety))+${G7_y}*(sin(${G7_x}*c_Getx+${G7_y}*c_Gety)-sin(${G7_x}*c_Getx-${G7_y}*c_Gety))+${G8_y}*sin(${G8_y}*c_Gety)+${G11_y}*sin(${G11_y}*c_Gety))
variable Fy atom -0.080000000000000001665*4.7096e-07*(1.10660450545984*(sin(0.803995234898914*c_Getx+1.10660450545984*c_Gety)-sin(0.803995234898914*c_Getx-1.10660450545984*c_Gety))+0.683919196477949*(sin(2.10488685175831*c_Getx+0.683919196477949*c_Gety)-sin(2.10488685175831*c_Getx-${G2_y}*c_Gety))+${G6_y}*(sin(${G6_x}*c_Getx+${G6_y}*c_Gety)-sin(${G6_x}*c_Getx-${G6_y}*c_Gety))+${G7_y}*(sin(${G7_x}*c_Getx+${G7_y}*c_Gety)-sin(${G7_x}*c_Getx-${G7_y}*c_Gety))+${G8_y}*sin(${G8_y}*c_Gety)+${G11_y}*sin(${G11_y}*c_Gety))
variable Fy atom -0.080000000000000001665*4.7096e-07*(1.10660450545984*(sin(0.803995234898914*c_Getx+1.10660450545984*c_Gety)-sin(0.803995234898914*c_Getx-1.10660450545984*c_Gety))+0.683919196477949*(sin(2.10488685175831*c_Getx+0.683919196477949*c_Gety)-sin(2.10488685175831*c_Getx-0.683919196477949*c_Gety))+${G6_y}*(sin(${G6_x}*c_Getx+${G6_y}*c_Gety)-sin(${G6_x}*c_Getx-${G6_y}*c_Gety))+${G7_y}*(sin(${G7_x}*c_Getx+${G7_y}*c_Gety)-sin(${G7_x}*c_Getx-${G7_y}*c_Gety))+${G8_y}*sin(${G8_y}*c_Gety)+${G11_y}*sin(${G11_y}*c_Gety))
variable Fy atom -0.080000000000000001665*4.7096e-07*(1.10660450545984*(sin(0.803995234898914*c_Getx+1.10660450545984*c_Gety)-sin(0.803995234898914*c_Getx-1.10660450545984*c_Gety))+0.683919196477949*(sin(2.10488685175831*c_Getx+0.683919196477949*c_Gety)-sin(2.10488685175831*c_Getx-0.683919196477949*c_Gety))+0.42268530898189*(sin(${G6_x}*c_Getx+${G6_y}*c_Gety)-sin(${G6_x}*c_Getx-${G6_y}*c_Gety))+${G7_y}*(sin(${G7_x}*c_Getx+${G7_y}*c_Gety)-sin(${G7_x}*c_Getx-${G7_y}*c_Gety))+${G8_y}*sin(${G8_y}*c_Gety)+${G11_y}*sin(${G11_y}*c_Gety))
variable Fy atom -0.080000000000000001665*4.7096e-07*(1.10660450545984*(sin(0.803995234898914*c_Getx+1.10660450545984*c_Gety)-sin(0.803995234898914*c_Getx-1.10660450545984*c_Gety))+0.683919196477949*(sin(2.10488685175831*c_Getx+0.683919196477949*c_Gety)-sin(2.10488685175831*c_Getx-0.683919196477949*c_Gety))+0.42268530898189*(sin(1.3008916168594*c_Getx+${G6_y}*c_Gety)-sin(${G6_x}*c_Getx-${G6_y}*c_Gety))+${G7_y}*(sin(${G7_x}*c_Getx+${G7_y}*c_Gety)-sin(${G7_x}*c_Getx-${G7_y}*c_Gety))+${G8_y}*sin(${G8_y}*c_Gety)+${G11_y}*sin(${G11_y}*c_Gety))